17	4
14	8	12	12	
0	0	0	0	0	3	2	3	4	
6	10	7	0	0	3	10	14	17	
7	0	1	0	7	3	6	12	17	
5	0	3	0	4	3	5	7	9	
3	9	3	0	4	3	16	17	17	
25	0	3	5	0	3	13	15	17	
150	2	1	5	0	3	8	11	16	
250	6	0	4	0	3	10	14	17	
100	8	0	0	10	3	13	14	17	
175	8	0	1	0	3	12	17	17	
100	0	0	2	0	3	17	17	17	
25	0	0	2	8	1	17	
4	0	6	0	0	2	16	17	
10	0	3	3	9	3	15	17	17	
4	10	0	5	5	3	17	17	17	
1	9	0	1	0	2	17	17	
0	0	0	0	0	0	
